Maximize
obj: 5 x0 + 0 x1 + 6 x2 + 7 x3 + 8 x4 + 1 x5 + 7 x6 + 8 x7 + 4 x8 + 1 x9 + 1 x10 + 1 x11 + 0 x12 + 1 x13 + 7 x14 + 2 x15 + 3 x16 + 8 x17 + 8 x18 + 1 x19 + 9 x20 + 9 x21 + 4 x22 + 8 x23 + 4 x24 + 3 x25 + 5 x26 + 9 x27 + 1 x28 + 0 x29 + 9 x30 + 7 x31 + 3 x32 + 7 x33 + 6 x34 + 1 x35 + 8 x36 + 3 x37 + 2 x38 + 3 x39 + 6 x40 + 3 x41 + 4 x42 + 8 x43 + 6 x44 + 3 x45 + 0 x46 + 1 x47 + 4 x48 + 0 x49 + 4 x50 + 3 x51 + 9 x52 + 8 x53 + 2 x54 + 6 x55 + 2 x56 + 7 x57 + 5 x58 + 5 x59 + 7 x60 + 6 x61 + 4 x62 + 2 x63 + 4 x64 + 0 x65 + 4 x66 + 2 x67 + 5 x68 + 8 x69 + 7 x70 + 1 x71 + 3 x72 + 1 x73 + 1 x74 + 9 x75 + 5 x76 + 2 x77 + 3 x78 + 1 x79 + 2 x80 + 7 x81 + 4 x82 + 2 x83 + 6 x84 + 6 x85 + 0 x86 + 0 x87 + 5 x88 + 7 x89 + 5 x90 + 5 x91 + 4 x92 + 0 x93 + 7 x94 + 8 x95 + 2 x96 + 3 x97 + 2 x98 + 8 x99 + 1 x100 + 0 x101  
Subject To
185 x0 + 184 x1 + 207 x2 + 310 x3  <= 368
0 x0 + 0 x1 + 0 x2 + 0 x3  <= 920
46 x0 + 251 x1 + 267 x2 + 46 x3  <= 517
21 x4 + 26 x5 + 352 x6 + 151 x7 + 366 x8 + 354 x9 + 112 x10 + 332 x11  <= 367
403 x4 + 678 x5 + 447 x6 + 403 x7 + 403 x8 + 359 x9 + 0 x10 + 0 x11  <= 805
36 x12 + 44 x13 + 611 x14 + 612 x15  <= 622
179 x12 + 259 x13 + 210 x14 + 147 x15  <= 356
444 x16 + 443 x17 + 750 x18 + 764 x19 + 789 x20 + 528 x21 + 480 x22  <= 886
16 x16 + 88 x17 + 68 x18 + 61 x19 + 71 x20 + 61 x21 + 54 x22  <= 114
495 x23 + 494 x24 + 982 x25 + 856 x26  <= 988
48 x23 + 29 x24 + 81 x25 + 93 x26  <= 111
0 x23 + 0 x24 + 37 x25 + 41 x26  <= 225
0 x23 + 0 x24 + 0 x25 + 0 x26  <= 484
97 x27 + 97 x28 + 124 x29 + 138 x30  <= 193
45 x27 + 15 x28 + 0 x29 + 0 x30  <= 309
116 x31 + 116 x32 + 181 x33 + 157 x34 + 76 x35  <= 231
49 x31 + 46 x32 + 36 x33 + 36 x34 + 0 x35  <= 77
11 x36 + 16 x37 + 602 x38 + 594 x39 + 340 x40  <= 602
79 x36 + 109 x37 + 36 x38 + 48 x39 + 0 x40  <= 156
438 x41 + 438 x42 + 766 x43 + 782 x44 + 748 x45 + 562 x46 + 778 x47  <= 875
11 x41 + 138 x42 + 103 x43 + 110 x44 + 94 x45 + 105 x46 + 61 x47  <= 165
25 x48 + 16 x49 + 704 x50 + 440 x51  <= 711
140 x48 + 194 x49 + 86 x50 + 0 x51  <= 279
245 x52 + 272 x53 + 194 x54 + 167 x55  <= 360
388 x52 + 388 x53 + 387 x54 + 387 x55  <= 774
118 x56 + 118 x57 + 131 x58 + 155 x59 + 189 x60 + 87 x61 + 157 x62  <= 235
22 x56 + 261 x57 + 267 x58 + 267 x59 + 273 x60 + 0 x61 + 0 x62  <= 533
17 x63 + 288 x64 + 8 x65 + 285 x66 + 286 x67 + 234 x68 + 236 x69  <= 295
267 x63 + 372 x64 + 320 x65 + 282 x66 + 214 x67 + 267 x68 + 267 x69  <= 533
490 x70 + 490 x71 + 808 x72 + 798 x73 + 561 x74  <= 979
0 x70 + 0 x71 + 0 x72 + 251 x73 + 251 x74  <= 501
26 x70 + 228 x71 + 226 x72 + 218 x73 + 220 x74  <= 445
26 x75 + 903 x76 + 907 x77 + 32 x78  <= 909
0 x75 + 0 x76 + 0 x77 + 0 x78  <= 571
0 x75 + 456 x76 + 455 x77 + 0 x78  <= 910
0 x75 + 42 x76 + 32 x77 + 23 x78  <= 834
44 x79 + 27 x80 + 285 x81 + 290 x82 + 82 x83 + 51 x84 + 244 x85  <= 290
374 x79 + 374 x80 + 374 x81 + 374 x82 + 374 x83 + 374 x84 + 0 x85  <= 747
24 x86 + 15 x87 + 599 x88 + 605 x89  <= 616
411 x86 + 690 x87 + 459 x88 + 363 x89  <= 821
13 x90 + 155 x91 + 144 x92 + 102 x93  <= 162
38 x90 + 0 x91 + 38 x92 + 0 x93  <= 75
0 x90 + 28 x91 + 0 x92 + 0 x93  <= 161
0 x90 + 0 x91 + 0 x92 + 0 x93  <= 415
0 x90 + 0 x91 + 0 x92 + 50 x93  <= 67
17 x94 + 908 x95 + 896 x96 + 13 x97  <= 910
294 x94 + 170 x95 + 86 x96 + 502 x97  <= 587
2 x98 + 41 x99 + 700 x100 + 714 x101  <= 719
486 x98 + 485 x99 + 486 x100 + 485 x101  <= 970
Binaries
x0
x1
x2
x3
x4
x5
x6
x7
x8
x9
x10
x11
x12
x13
x14
x15
x16
x17
x18
x19
x20
x21
x22
x23
x24
x25
x26
x27
x28
x29
x30
x31
x32
x33
x34
x35
x36
x37
x38
x39
x40
x41
x42
x43
x44
x45
x46
x47
x48
x49
x50
x51
x52
x53
x54
x55
x56
x57
x58
x59
x60
x61
x62
x63
x64
x65
x66
x67
x68
x69
x70
x71
x72
x73
x74
x75
x76
x77
x78
x79
x80
x81
x82
x83
x84
x85
x86
x87
x88
x89
x90
x91
x92
x93
x94
x95
x96
x97
x98
x99
x100
x101
End
